words_hard_train/2264.qaiger
aag 98 15 0 1 83
2
4
8
16
26
32
42
50
62
70
88
96
132
140
178
197
6 3 5
10 7 8
12 6 9
14 11 13
18 17 4
20 19 7
22 16 5
24 23 2
28 24 27
30 20 29
34 31 33
36 14 35
38 30 32
40 37 39
44 13 42
46 12 43
48 45 47
52 49 51
54 48 50
56 53 55
58 41 56
60 59 55
64 47 62
66 46 63
68 65 67
72 69 71
74 68 70
76 73 75
78 60 77
80 61 76
82 79 81
84 83 63
86 81 75
90 67 88
92 66 89
94 91 93
98 95 97
100 94 96
102 99 101
104 86 103
106 87 102
108 105 107
110 108 88
112 82 62
114 111 113
116 35 39
118 117 6
120 116 7
122 119 121
124 26 16
126 122 124
128 114 126
130 107 101
134 92 133
136 93 132
138 135 137
142 139 141
144 138 140
146 143 145
148 130 147
150 131 146
152 149 151
154 152 132
156 128 155
158 85 156
160 40 57
162 161 59
164 163 43
166 162 42
168 165 167
170 109 89
172 168 171
174 153 133
176 172 175
180 134 179
182 135 178
184 181 183
186 151 145
188 184 186
190 185 187
192 189 191
194 176 193
196 158 194
i0 1 x1[0]
i1 1 x1[1]
i2 1 x1[2]
i3 2 y1[1]
i4 2 y1[0]
i5 2 y1[2]
i6 1 x1[3]
i7 2 y1[3]
i8 1 x1[4]
i9 2 y1[4]
i10 1 x1[5]
i11 2 y1[5]
i12 1 x1[6]
i13 2 y1[6]
i14 2 y1[7]
o0 bool[0]
c
simplified
  !=
    subtract
      2 y1
      1 x1
    subtract
      unary minus
        1 x1
      1
