words_hard_train/2264.qaiger.qdimacs
p cnf 98 250
a 1 2 66 4 44 21 31 0
e 3 5 6 7 8 9 10 11 12 13 14 15 16 17 18 19 20 22 23 24 25 26 27 28 29 30 32 33 34 35 36 37 38 39 40 41 42 43 45 46 47 48 49 50 51 52 53 54 55 56 57 58 59 60 61 62 63 64 65 67 68 69 70 71 72 73 74 75 76 77 78 79 80 81 82 83 84 85 86 87 88 89 90 91 92 93 94 95 96 97 98 0
1 2 3 0
-1 -3 0
-2 -3 0
3 -4 5 0
-3 -5 0
4 -5 0
-3 4 6 0
3 -6 0
-4 -6 0
5 6 7 0
-5 -7 0
-6 -7 0
8 -2 9 0
-8 -9 0
2 -9 0
9 3 10 0
-9 -10 0
-3 -10 0
-8 2 11 0
8 -11 0
-2 -11 0
11 -1 12 0
-11 -12 0
1 -12 0
-12 13 14 0
12 -14 0
-13 -14 0
-10 14 15 0
10 -15 0
-14 -15 0
15 16 17 0
-15 -17 0
-16 -17 0
-7 17 18 0
7 -18 0
-17 -18 0
-15 -16 19 0
15 -19 0
16 -19 0
18 19 20 0
-18 -20 0
-19 -20 0
6 -21 22 0
-6 -22 0
21 -22 0
-6 21 23 0
6 -23 0
-21 -23 0
22 23 24 0
-22 -24 0
-23 -24 0
24 25 26 0
-24 -26 0
-25 -26 0
-24 -25 27 0
24 -27 0
25 -27 0
26 27 28 0
-26 -28 0
-27 -28 0
20 -28 29 0
-20 -29 0
28 -29 0
29 27 30 0
-29 -30 0
-27 -30 0
23 -31 32 0
-23 -32 0
31 -32 0
-23 31 33 0
23 -33 0
-31 -33 0
32 33 34 0
-32 -34 0
-33 -34 0
34 35 36 0
-34 -36 0
-35 -36 0
-34 -35 37 0
34 -37 0
35 -37 0
36 37 38 0
-36 -38 0
-37 -38 0
-30 38 39 0
30 -39 0
-38 -39 0
30 -38 40 0
-30 -40 0
38 -40 0
39 40 41 0
-39 -41 0
-40 -41 0
41 31 42 0
-41 -42 0
-31 -42 0
40 37 43 0
-40 -43 0
-37 -43 0
33 -44 45 0
-33 -45 0
44 -45 0
-33 44 46 0
33 -46 0
-44 -46 0
45 46 47 0
-45 -47 0
-46 -47 0
47 48 49 0
-47 -49 0
-48 -49 0
-47 -48 50 0
47 -50 0
48 -50 0
49 50 51 0
-49 -51 0
-50 -51 0
-43 51 52 0
43 -52 0
-51 -52 0
43 -51 53 0
-43 -53 0
51 -53 0
52 53 54 0
-52 -54 0
-53 -54 0
-54 -44 55 0
54 -55 0
44 -55 0
-41 -31 56 0
41 -56 0
31 -56 0
55 56 57 0
-55 -57 0
-56 -57 0
17 19 58 0
-17 -58 0
-19 -58 0
58 -3 59 0
-58 -59 0
3 -59 0
-58 3 60 0
58 -60 0
-3 -60 0
59 60 61 0
-59 -61 0
-60 -61 0
-13 -8 62 0
13 -62 0
8 -62 0
-61 -62 63 0
61 -63 0
62 -63 0
-57 -63 64 0
57 -64 0
63 -64 0
53 50 65 0
-53 -65 0
-50 -65 0
-46 66 67 0
46 -67 0
-66 -67 0
46 -66 68 0
-46 -68 0
66 -68 0
67 68 69 0
-67 -69 0
-68 -69 0
69 70 71 0
-69 -71 0
-70 -71 0
-69 -70 72 0
69 -72 0
70 -72 0
71 72 73 0
-71 -73 0
-72 -73 0
-65 73 74 0
65 -74 0
-73 -74 0
65 -73 75 0
-65 -75 0
73 -75 0
74 75 76 0
-74 -76 0
-75 -76 0
-76 -66 77 0
76 -77 0
66 -77 0
-64 77 78 0
64 -78 0
-77 -78 0
42 -78 79 0
-42 -79 0
78 -79 0
-20 28 80 0
20 -80 0
-28 -80 0
80 29 81 0
-80 -81 0
-29 -81 0
81 21 82 0
-81 -82 0
-21 -82 0
-81 -21 83 0
81 -83 0
21 -83 0
82 83 84 0
-82 -84 0
-83 -84 0
54 44 85 0
-54 -85 0
-44 -85 0
-84 85 86 0
84 -86 0
-85 -86 0
76 66 87 0
-76 -87 0
-66 -87 0
-86 87 88 0
86 -88 0
-87 -88 0
-67 89 90 0
67 -90 0
-89 -90 0
67 -89 91 0
-67 -91 0
89 -91 0
90 91 92 0
-90 -92 0
-91 -92 0
75 72 93 0
-75 -93 0
-72 -93 0
-92 -93 94 0
92 -94 0
93 -94 0
92 93 95 0
-92 -95 0
-93 -95 0
94 95 96 0
-94 -96 0
-95 -96 0
-88 96 97 0
88 -97 0
-96 -97 0
-79 -97 98 0
79 -98 0
97 -98 0
-98 0
